(set-logic QF_ABV)

(declare-const __ESBMC_ptr_obj_start_0 (_ BitVec 64))

(declare-const __ESBMC_ptr_obj_end_0 (_ BitVec 64))

(declare-const __ESBMC_ptr_obj_start_1 (_ BitVec 64))

(declare-const __ESBMC_ptr_obj_end_1 (_ BitVec 64))

(declare-const |smt_conv::__ESBMC_ptr_addr_range_0..start0| (_ BitVec 64))

(declare-const |smt_conv::__ESBMC_ptr_addr_range_0..end0| (_ BitVec 64))

(declare-const |smt_conv::__ESBMC_ptr_addr_range_1..start0| (_ BitVec 64))

(declare-const |smt_conv::__ESBMC_ptr_addr_range_1..end0| (_ BitVec 64))

(declare-const |smt_conv::smt_conv::collate_array_vals::3..start0| (_ BitVec 64))

(declare-const |smt_conv::smt_conv::collate_array_vals::3..end0| (_ BitVec 64))

(declare-const |smt_conv::smt_conv::collate_array_vals::4..start0| (_ BitVec 64))

(declare-const |smt_conv::smt_conv::collate_array_vals::4..end0| (_ BitVec 64))

(declare-const |smt_conv::smt_conv::collate_array_vals::7..start0| (_ BitVec 64))

(declare-const |smt_conv::smt_conv::collate_array_vals::7..end0| (_ BitVec 64))

(declare-const |c:@F@main::$tmp::return_value$___VERIFIER_nondet_int$1?1!0&0#1| (_ BitVec 32))

(declare-const |nondet$symex::nondet228| (_ BitVec 32))

(declare-const |c:openbsd_cstrlen-alloca-1.i@22196@F@main@length1?1!0&0#1| (_ BitVec 32))

(declare-const |goto_symex::guard?0!0&0#1| (_ BitVec 1))

(declare-const |c:openbsd_cstrlen-alloca-1.i@22196@F@main@length1?1!0&0#3| (_ BitVec 32))

(declare-const |goto_symex::guard?0!0&0#2| (_ BitVec 1))

(declare-const |nondet$symex::nondet230| (_ BitVec 8))

(declare-const |goto_symex::guard?0!0&0#3| (_ BitVec 1))

(declare-const |nondet$symex::nondet231| (_ BitVec 8))

(declare-const |goto_symex::guard?0!0&0#4| (_ BitVec 1))

(declare-const |nondet$symex::nondet232| (_ BitVec 8))

(declare-const |goto_symex::guard?0!0&0#5| (_ BitVec 1))

(declare-const |nondet$symex::nondet233| (_ BitVec 8))

(declare-const |goto_symex::guard?0!0&0#6| (_ BitVec 1))

(declare-const |nondet$symex::nondet234| (_ BitVec 8))

(declare-const |goto_symex::guard?0!0&0#7| (_ BitVec 1))

(declare-const |nondet$symex::nondet235| (_ BitVec 8))

(declare-const |goto_symex::guard?0!0&0#8| (_ BitVec 1))

(declare-const |nondet$symex::nondet236| (_ BitVec 8))

(declare-const |goto_symex::guard?0!0&0#9| (_ BitVec 1))

(declare-const |nondet$symex::nondet237| (_ BitVec 8))

(declare-const |goto_symex::guard?0!0&0#10| (_ BitVec 1))

(declare-const |nondet$symex::nondet238| (_ BitVec 8))

(declare-const |goto_symex::guard?0!0&0#11| (_ BitVec 1))

(declare-const |nondet$symex::nondet239| (_ BitVec 8))

(declare-const |goto_symex::guard?0!0&0#12| (_ BitVec 1))

(declare-const |nondet$symex::nondet240| (_ BitVec 8))

(declare-const |goto_symex::guard?0!0&0#13| (_ BitVec 1))

(declare-const |nondet$symex::nondet241| (_ BitVec 8))

(declare-const |goto_symex::guard?0!0&0#14| (_ BitVec 1))

(declare-const |nondet$symex::nondet242| (_ BitVec 8))

(declare-const |goto_symex::guard?0!0&0#15| (_ BitVec 1))

(declare-const |nondet$symex::nondet243| (_ BitVec 8))

(declare-const |goto_symex::guard?0!0&0#16| (_ BitVec 1))

(declare-const |nondet$symex::nondet244| (_ BitVec 8))

(declare-const |goto_symex::guard?0!0&0#17| (_ BitVec 1))

(declare-const |nondet$symex::nondet245| (_ BitVec 8))

(declare-const |goto_symex::guard?0!0&0#18| (_ BitVec 1))

(declare-const |nondet$symex::nondet246| (_ BitVec 8))

(declare-const |goto_symex::guard?0!0&0#19| (_ BitVec 1))

(declare-const |nondet$symex::nondet247| (_ BitVec 8))

(declare-const |goto_symex::guard?0!0&0#20| (_ BitVec 1))

(declare-const |nondet$symex::nondet248| (_ BitVec 8))

(declare-const |goto_symex::guard?0!0&0#21| (_ BitVec 1))

(declare-const |execution_statet::guard_exec?0!0| (_ BitVec 1))

(declare-const |goto_symex::guard?0!0&0#22| (_ BitVec 1))

(declare-const |goto_symex::guard?0!0&0#23| (_ BitVec 1))

(declare-const |goto_symex::guard?0!0&0#24| (_ BitVec 1))

(declare-const |goto_symex::guard?0!0&0#25| (_ BitVec 1))

(declare-const |goto_symex::guard?0!0&0#26| (_ BitVec 1))

(declare-const |goto_symex::guard?0!0&0#27| (_ BitVec 1))

(declare-const |goto_symex::guard?0!0&0#28| (_ BitVec 1))

(declare-const |goto_symex::guard?0!0&0#29| (_ BitVec 1))

(declare-const |goto_symex::guard?0!0&0#30| (_ BitVec 1))

(declare-const |goto_symex::guard?0!0&0#31| (_ BitVec 1))

(declare-const |goto_symex::guard?0!0&0#32| (_ BitVec 1))

(declare-const |goto_symex::guard?0!0&0#33| (_ BitVec 1))

(declare-const |goto_symex::guard?0!0&0#34| (_ BitVec 1))

(declare-const |goto_symex::guard?0!0&0#35| (_ BitVec 1))

(declare-const |goto_symex::guard?0!0&0#36| (_ BitVec 1))

(declare-const |goto_symex::guard?0!0&0#37| (_ BitVec 1))

(declare-const |goto_symex::guard?0!0&0#38| (_ BitVec 1))

(declare-const |goto_symex::guard?0!0&0#39| (_ BitVec 1))

(declare-const |goto_symex::guard?0!0&0#40| (_ BitVec 1))

(declare-const |goto_symex::guard?0!0&0#41| (_ BitVec 1))

(declare-const |symex_dynamic::alloca::dynamic_230_array&0#1| (Array (_ BitVec 64) (_ BitVec 8)))

(declare-const |symex_dynamic::alloca::dynamic_230_array&0#0| (Array (_ BitVec 64) (_ BitVec 8)))

(declare-const |symex_dynamic::alloca::dynamic_230_array&0#2| (Array (_ BitVec 64) (_ BitVec 8)))

(declare-const |symex_dynamic::alloca::dynamic_230_array&0#3| (Array (_ BitVec 64) (_ BitVec 8)))

(declare-const |symex_dynamic::alloca::dynamic_230_array&0#4| (Array (_ BitVec 64) (_ BitVec 8)))

(declare-const |symex_dynamic::alloca::dynamic_230_array&0#5| (Array (_ BitVec 64) (_ BitVec 8)))

(declare-const |symex_dynamic::alloca::dynamic_230_array&0#6| (Array (_ BitVec 64) (_ BitVec 8)))

(declare-const |symex_dynamic::alloca::dynamic_230_array&0#7| (Array (_ BitVec 64) (_ BitVec 8)))

(declare-const |symex_dynamic::alloca::dynamic_230_array&0#8| (Array (_ BitVec 64) (_ BitVec 8)))

(declare-const |symex_dynamic::alloca::dynamic_230_array&0#9| (Array (_ BitVec 64) (_ BitVec 8)))

(declare-const |symex_dynamic::alloca::dynamic_230_array&0#10| (Array (_ BitVec 64) (_ BitVec 8)))

(declare-const |symex_dynamic::alloca::dynamic_230_array&0#11| (Array (_ BitVec 64) (_ BitVec 8)))

(declare-const |symex_dynamic::alloca::dynamic_230_array&0#12| (Array (_ BitVec 64) (_ BitVec 8)))

(declare-const |symex_dynamic::alloca::dynamic_230_array&0#13| (Array (_ BitVec 64) (_ BitVec 8)))

(declare-const |symex_dynamic::alloca::dynamic_230_array&0#14| (Array (_ BitVec 64) (_ BitVec 8)))

(declare-const |symex_dynamic::alloca::dynamic_230_array&0#15| (Array (_ BitVec 64) (_ BitVec 8)))

(declare-const |symex_dynamic::alloca::dynamic_230_array&0#16| (Array (_ BitVec 64) (_ BitVec 8)))

(declare-const |symex_dynamic::alloca::dynamic_230_array&0#17| (Array (_ BitVec 64) (_ BitVec 8)))

(declare-const |symex_dynamic::alloca::dynamic_230_array&0#18| (Array (_ BitVec 64) (_ BitVec 8)))

(declare-const |symex_dynamic::alloca::dynamic_230_array&0#19| (Array (_ BitVec 64) (_ BitVec 8)))

(declare-const |symex_dynamic::alloca::dynamic_230_array&0#21| (Array (_ BitVec 64) (_ BitVec 8)))

(declare-const |symex_dynamic::alloca::dynamic_230_array&0#22| (Array (_ BitVec 64) (_ BitVec 8)))

(declare-const |symex_dynamic::alloca::dynamic_230_array&0#23| (Array (_ BitVec 64) (_ BitVec 8)))

(declare-const |symex_dynamic::alloca::dynamic_230_array&0#24| (Array (_ BitVec 64) (_ BitVec 8)))

(declare-const |symex_dynamic::alloca::dynamic_230_array&0#25| (Array (_ BitVec 64) (_ BitVec 8)))

(declare-const |symex_dynamic::alloca::dynamic_230_array&0#26| (Array (_ BitVec 64) (_ BitVec 8)))

(declare-const |symex_dynamic::alloca::dynamic_230_array&0#27| (Array (_ BitVec 64) (_ BitVec 8)))

(declare-const |symex_dynamic::alloca::dynamic_230_array&0#28| (Array (_ BitVec 64) (_ BitVec 8)))

(declare-const |symex_dynamic::alloca::dynamic_230_array&0#29| (Array (_ BitVec 64) (_ BitVec 8)))

(declare-const |symex_dynamic::alloca::dynamic_230_array&0#30| (Array (_ BitVec 64) (_ BitVec 8)))

(declare-const |symex_dynamic::alloca::dynamic_230_array&0#31| (Array (_ BitVec 64) (_ BitVec 8)))

(declare-const |symex_dynamic::alloca::dynamic_230_array&0#32| (Array (_ BitVec 64) (_ BitVec 8)))

(declare-const |symex_dynamic::alloca::dynamic_230_array&0#33| (Array (_ BitVec 64) (_ BitVec 8)))

(declare-const |symex_dynamic::alloca::dynamic_230_array&0#34| (Array (_ BitVec 64) (_ BitVec 8)))

(declare-const |symex_dynamic::alloca::dynamic_230_array&0#35| (Array (_ BitVec 64) (_ BitVec 8)))

(declare-const |symex_dynamic::alloca::dynamic_230_array&0#36| (Array (_ BitVec 64) (_ BitVec 8)))

(declare-const |symex_dynamic::alloca::dynamic_230_array&0#37| (Array (_ BitVec 64) (_ BitVec 8)))

(declare-const |symex_dynamic::alloca::dynamic_230_array&0#38| (Array (_ BitVec 64) (_ BitVec 8)))

(declare-const |symex_dynamic::alloca::dynamic_230_array&0#39| (Array (_ BitVec 64) (_ BitVec 8)))

(declare-const |symex_dynamic::alloca::dynamic_230_array&0#40| (Array (_ BitVec 64) (_ BitVec 8)))

(define-fun $e1 () (_ BitVec 32) 

 (bvadd #b11111111111111111111111111111111 |c:openbsd_cstrlen-alloca-1.i@22196@F@main@length1?1!0&0#3|))

(define-fun $e2 () (_ BitVec 64) 

 (bvmul #b0000000000000000000000000000000000000000000000000000000000001000 

  (concat 

   (ite 

    (= #b1 

     ((_ extract 31 31) $e1)) #b11111111111111111111111111111111 #b00000000000000000000000000000000) $e1)))

(assert 

 (= __ESBMC_ptr_obj_start_0 #b0000000000000000000000000000000000000000000000000000000000000000))

(assert 

 (= #b0000000000000000000000000000000000000000000000000000000000000000 __ESBMC_ptr_obj_end_0))

(assert 

 (= __ESBMC_ptr_obj_start_1 #b0000000000000000000000000000000000000000000000000000000000000001))

(assert 

 (= #b1111111111111111111111111111111111111111111111111111111111111111 __ESBMC_ptr_obj_end_1))

(assert 

 (= __ESBMC_ptr_obj_end_0 |smt_conv::__ESBMC_ptr_addr_range_0..end0|))

(assert 

 (= __ESBMC_ptr_obj_start_0 |smt_conv::__ESBMC_ptr_addr_range_0..start0|))

(assert 

 (= __ESBMC_ptr_obj_end_1 |smt_conv::__ESBMC_ptr_addr_range_1..end0|))

(assert 

 (= __ESBMC_ptr_obj_start_1 |smt_conv::__ESBMC_ptr_addr_range_1..start0|))

(assert 

 (= |smt_conv::smt_conv::collate_array_vals::3..end0| |smt_conv::smt_conv::collate_array_vals::4..end0|))

(assert 

 (= |smt_conv::smt_conv::collate_array_vals::3..start0| |smt_conv::smt_conv::collate_array_vals::4..start0|))

(assert 

 (= __ESBMC_ptr_obj_end_0 |smt_conv::smt_conv::collate_array_vals::7..end0|))

(assert 

 (= __ESBMC_ptr_obj_start_0 |smt_conv::smt_conv::collate_array_vals::7..start0|))

(assert 

 (= |c:@F@main::$tmp::return_value$___VERIFIER_nondet_int$1?1!0&0#1| |nondet$symex::nondet228|))

(assert 

 (= |c:@F@main::$tmp::return_value$___VERIFIER_nondet_int$1?1!0&0#1| |c:openbsd_cstrlen-alloca-1.i@22196@F@main@length1?1!0&0#1|))

(assert 

 (= |goto_symex::guard?0!0&0#1| 

  (ite 

   (bvslt |c:openbsd_cstrlen-alloca-1.i@22196@F@main@length1?1!0&0#1| #b00000000000000000000000000000001) #b1 #b0)))

(assert 

 (= |c:openbsd_cstrlen-alloca-1.i@22196@F@main@length1?1!0&0#3| 

  (ite 

   (= #b1 |goto_symex::guard?0!0&0#1|) #b00000000000000000000000000000001 |c:openbsd_cstrlen-alloca-1.i@22196@F@main@length1?1!0&0#1|)))

(assert 

 (= |goto_symex::guard?0!0&0#2| 

  (ite 

   (bvslt #b00000000000000000000000000000000 $e1) #b1 #b0)))

(assert 

 (= |symex_dynamic::alloca::dynamic_230_array&0#1| 

  (store |symex_dynamic::alloca::dynamic_230_array&0#0| #b0000000000000000000000000000000000000000000000000000000000000000 |nondet$symex::nondet230|)))

(assert 

 (= |goto_symex::guard?0!0&0#3| 

  (ite 

   (bvslt #b00000000000000000000000000000001 $e1) #b1 #b0)))

(assert 

 (= |symex_dynamic::alloca::dynamic_230_array&0#2| 

  (store |symex_dynamic::alloca::dynamic_230_array&0#1| #b0000000000000000000000000000000000000000000000000000000000000001 |nondet$symex::nondet231|)))

(assert 

 (= |goto_symex::guard?0!0&0#4| 

  (ite 

   (bvslt #b00000000000000000000000000000010 $e1) #b1 #b0)))

(assert 

 (= |symex_dynamic::alloca::dynamic_230_array&0#3| 

  (store |symex_dynamic::alloca::dynamic_230_array&0#2| #b0000000000000000000000000000000000000000000000000000000000000010 |nondet$symex::nondet232|)))

(assert 

 (= |goto_symex::guard?0!0&0#5| 

  (ite 

   (bvslt #b00000000000000000000000000000011 $e1) #b1 #b0)))

(assert 

 (= |symex_dynamic::alloca::dynamic_230_array&0#4| 

  (store |symex_dynamic::alloca::dynamic_230_array&0#3| #b0000000000000000000000000000000000000000000000000000000000000011 |nondet$symex::nondet233|)))

(assert 

 (= |goto_symex::guard?0!0&0#6| 

  (ite 

   (bvslt #b00000000000000000000000000000100 $e1) #b1 #b0)))

(assert 

 (= |symex_dynamic::alloca::dynamic_230_array&0#5| 

  (store |symex_dynamic::alloca::dynamic_230_array&0#4| #b0000000000000000000000000000000000000000000000000000000000000100 |nondet$symex::nondet234|)))

(assert 

 (= |goto_symex::guard?0!0&0#7| 

  (ite 

   (bvslt #b00000000000000000000000000000101 $e1) #b1 #b0)))

(assert 

 (= |symex_dynamic::alloca::dynamic_230_array&0#6| 

  (store |symex_dynamic::alloca::dynamic_230_array&0#5| #b0000000000000000000000000000000000000000000000000000000000000101 |nondet$symex::nondet235|)))

(assert 

 (= |goto_symex::guard?0!0&0#8| 

  (ite 

   (bvslt #b00000000000000000000000000000110 $e1) #b1 #b0)))

(assert 

 (= |symex_dynamic::alloca::dynamic_230_array&0#7| 

  (store |symex_dynamic::alloca::dynamic_230_array&0#6| #b0000000000000000000000000000000000000000000000000000000000000110 |nondet$symex::nondet236|)))

(assert 

 (= |goto_symex::guard?0!0&0#9| 

  (ite 

   (bvslt #b00000000000000000000000000000111 $e1) #b1 #b0)))

(assert 

 (= |symex_dynamic::alloca::dynamic_230_array&0#8| 

  (store |symex_dynamic::alloca::dynamic_230_array&0#7| #b0000000000000000000000000000000000000000000000000000000000000111 |nondet$symex::nondet237|)))

(assert 

 (= |goto_symex::guard?0!0&0#10| 

  (ite 

   (bvslt #b00000000000000000000000000001000 $e1) #b1 #b0)))

(assert 

 (= |symex_dynamic::alloca::dynamic_230_array&0#9| 

  (store |symex_dynamic::alloca::dynamic_230_array&0#8| #b0000000000000000000000000000000000000000000000000000000000001000 |nondet$symex::nondet238|)))

(assert 

 (= |goto_symex::guard?0!0&0#11| 

  (ite 

   (bvslt #b00000000000000000000000000001001 $e1) #b1 #b0)))

(assert 

 (= |symex_dynamic::alloca::dynamic_230_array&0#10| 

  (store |symex_dynamic::alloca::dynamic_230_array&0#9| #b0000000000000000000000000000000000000000000000000000000000001001 |nondet$symex::nondet239|)))

(assert 

 (= |goto_symex::guard?0!0&0#12| 

  (ite 

   (bvslt #b00000000000000000000000000001010 $e1) #b1 #b0)))

(assert 

 (= |symex_dynamic::alloca::dynamic_230_array&0#11| 

  (store |symex_dynamic::alloca::dynamic_230_array&0#10| #b0000000000000000000000000000000000000000000000000000000000001010 |nondet$symex::nondet240|)))

(assert 

 (= |goto_symex::guard?0!0&0#13| 

  (ite 

   (bvslt #b00000000000000000000000000001011 $e1) #b1 #b0)))

(assert 

 (= |symex_dynamic::alloca::dynamic_230_array&0#12| 

  (store |symex_dynamic::alloca::dynamic_230_array&0#11| #b0000000000000000000000000000000000000000000000000000000000001011 |nondet$symex::nondet241|)))

(assert 

 (= |goto_symex::guard?0!0&0#14| 

  (ite 

   (bvslt #b00000000000000000000000000001100 $e1) #b1 #b0)))

(assert 

 (= |symex_dynamic::alloca::dynamic_230_array&0#13| 

  (store |symex_dynamic::alloca::dynamic_230_array&0#12| #b0000000000000000000000000000000000000000000000000000000000001100 |nondet$symex::nondet242|)))

(assert 

 (= |goto_symex::guard?0!0&0#15| 

  (ite 

   (bvslt #b00000000000000000000000000001101 $e1) #b1 #b0)))

(assert 

 (= |symex_dynamic::alloca::dynamic_230_array&0#14| 

  (store |symex_dynamic::alloca::dynamic_230_array&0#13| #b0000000000000000000000000000000000000000000000000000000000001101 |nondet$symex::nondet243|)))

(assert 

 (= |goto_symex::guard?0!0&0#16| 

  (ite 

   (bvslt #b00000000000000000000000000001110 $e1) #b1 #b0)))

(assert 

 (= |symex_dynamic::alloca::dynamic_230_array&0#15| 

  (store |symex_dynamic::alloca::dynamic_230_array&0#14| #b0000000000000000000000000000000000000000000000000000000000001110 |nondet$symex::nondet244|)))

(assert 

 (= |goto_symex::guard?0!0&0#17| 

  (ite 

   (bvslt #b00000000000000000000000000001111 $e1) #b1 #b0)))

(assert 

 (= |symex_dynamic::alloca::dynamic_230_array&0#16| 

  (store |symex_dynamic::alloca::dynamic_230_array&0#15| #b0000000000000000000000000000000000000000000000000000000000001111 |nondet$symex::nondet245|)))

(assert 

 (= |goto_symex::guard?0!0&0#18| 

  (ite 

   (bvslt #b00000000000000000000000000010000 $e1) #b1 #b0)))

(assert 

 (= |symex_dynamic::alloca::dynamic_230_array&0#17| 

  (store |symex_dynamic::alloca::dynamic_230_array&0#16| #b0000000000000000000000000000000000000000000000000000000000010000 |nondet$symex::nondet246|)))

(assert 

 (= |goto_symex::guard?0!0&0#19| 

  (ite 

   (bvslt #b00000000000000000000000000010001 $e1) #b1 #b0)))

(assert 

 (= |symex_dynamic::alloca::dynamic_230_array&0#18| 

  (store |symex_dynamic::alloca::dynamic_230_array&0#17| #b0000000000000000000000000000000000000000000000000000000000010001 |nondet$symex::nondet247|)))

(assert 

 (= |goto_symex::guard?0!0&0#20| 

  (ite 

   (bvslt #b00000000000000000000000000010010 $e1) #b1 #b0)))

(assert 

 (= |symex_dynamic::alloca::dynamic_230_array&0#19| 

  (store |symex_dynamic::alloca::dynamic_230_array&0#18| #b0000000000000000000000000000000000000000000000000000000000010010 |nondet$symex::nondet248|)))

(assert 

 (= |goto_symex::guard?0!0&0#21| 

  (ite 

   (bvslt #b00000000000000000000000000010011 $e1) #b1 #b0)))

(assert 

 (= |symex_dynamic::alloca::dynamic_230_array&0#19| |symex_dynamic::alloca::dynamic_230_array&0#21|))

(assert 

 (= |symex_dynamic::alloca::dynamic_230_array&0#22| 

  (ite 

   (= #b1 |goto_symex::guard?0!0&0#20|) |symex_dynamic::alloca::dynamic_230_array&0#21| |symex_dynamic::alloca::dynamic_230_array&0#18|)))

(assert 

 (= |symex_dynamic::alloca::dynamic_230_array&0#23| 

  (ite 

   (= #b1 |goto_symex::guard?0!0&0#19|) |symex_dynamic::alloca::dynamic_230_array&0#22| |symex_dynamic::alloca::dynamic_230_array&0#17|)))

(assert 

 (= |symex_dynamic::alloca::dynamic_230_array&0#24| 

  (ite 

   (= #b1 |goto_symex::guard?0!0&0#18|) |symex_dynamic::alloca::dynamic_230_array&0#23| |symex_dynamic::alloca::dynamic_230_array&0#16|)))

(assert 

 (= |symex_dynamic::alloca::dynamic_230_array&0#25| 

  (ite 

   (= #b1 |goto_symex::guard?0!0&0#17|) |symex_dynamic::alloca::dynamic_230_array&0#24| |symex_dynamic::alloca::dynamic_230_array&0#15|)))

(assert 

 (= |symex_dynamic::alloca::dynamic_230_array&0#26| 

  (ite 

   (= #b1 |goto_symex::guard?0!0&0#16|) |symex_dynamic::alloca::dynamic_230_array&0#25| |symex_dynamic::alloca::dynamic_230_array&0#14|)))

(assert 

 (= |symex_dynamic::alloca::dynamic_230_array&0#27| 

  (ite 

   (= #b1 |goto_symex::guard?0!0&0#15|) |symex_dynamic::alloca::dynamic_230_array&0#26| |symex_dynamic::alloca::dynamic_230_array&0#13|)))

(assert 

 (= |symex_dynamic::alloca::dynamic_230_array&0#28| 

  (ite 

   (= #b1 |goto_symex::guard?0!0&0#14|) |symex_dynamic::alloca::dynamic_230_array&0#27| |symex_dynamic::alloca::dynamic_230_array&0#12|)))

(assert 

 (= |symex_dynamic::alloca::dynamic_230_array&0#29| 

  (ite 

   (= #b1 |goto_symex::guard?0!0&0#13|) |symex_dynamic::alloca::dynamic_230_array&0#28| |symex_dynamic::alloca::dynamic_230_array&0#11|)))

(assert 

 (= |symex_dynamic::alloca::dynamic_230_array&0#30| 

  (ite 

   (= #b1 |goto_symex::guard?0!0&0#12|) |symex_dynamic::alloca::dynamic_230_array&0#29| |symex_dynamic::alloca::dynamic_230_array&0#10|)))

(assert 

 (= |symex_dynamic::alloca::dynamic_230_array&0#31| 

  (ite 

   (= #b1 |goto_symex::guard?0!0&0#11|) |symex_dynamic::alloca::dynamic_230_array&0#30| |symex_dynamic::alloca::dynamic_230_array&0#9|)))

(assert 

 (= |symex_dynamic::alloca::dynamic_230_array&0#32| 

  (ite 

   (= #b1 |goto_symex::guard?0!0&0#10|) |symex_dynamic::alloca::dynamic_230_array&0#31| |symex_dynamic::alloca::dynamic_230_array&0#8|)))

(assert 

 (= |symex_dynamic::alloca::dynamic_230_array&0#33| 

  (ite 

   (= #b1 |goto_symex::guard?0!0&0#9|) |symex_dynamic::alloca::dynamic_230_array&0#32| |symex_dynamic::alloca::dynamic_230_array&0#7|)))

(assert 

 (= |symex_dynamic::alloca::dynamic_230_array&0#34| 

  (ite 

   (= #b1 |goto_symex::guard?0!0&0#8|) |symex_dynamic::alloca::dynamic_230_array&0#33| |symex_dynamic::alloca::dynamic_230_array&0#6|)))

(assert 

 (= |symex_dynamic::alloca::dynamic_230_array&0#35| 

  (ite 

   (= #b1 |goto_symex::guard?0!0&0#7|) |symex_dynamic::alloca::dynamic_230_array&0#34| |symex_dynamic::alloca::dynamic_230_array&0#5|)))

(assert 

 (= |symex_dynamic::alloca::dynamic_230_array&0#36| 

  (ite 

   (= #b1 |goto_symex::guard?0!0&0#6|) |symex_dynamic::alloca::dynamic_230_array&0#35| |symex_dynamic::alloca::dynamic_230_array&0#4|)))

(assert 

 (= |symex_dynamic::alloca::dynamic_230_array&0#37| 

  (ite 

   (= #b1 |goto_symex::guard?0!0&0#5|) |symex_dynamic::alloca::dynamic_230_array&0#36| |symex_dynamic::alloca::dynamic_230_array&0#3|)))

(assert 

 (= |symex_dynamic::alloca::dynamic_230_array&0#38| 

  (ite 

   (= #b1 |goto_symex::guard?0!0&0#4|) |symex_dynamic::alloca::dynamic_230_array&0#37| |symex_dynamic::alloca::dynamic_230_array&0#2|)))

(assert 

 (= |symex_dynamic::alloca::dynamic_230_array&0#39| 

  (ite 

   (= #b1 |goto_symex::guard?0!0&0#3|) |symex_dynamic::alloca::dynamic_230_array&0#38| |symex_dynamic::alloca::dynamic_230_array&0#1|)))

(assert 

 (= |symex_dynamic::alloca::dynamic_230_array&0#40| 

  (ite 

   (= #b0000000000000000000000000000000000000000000000000000000000000000 

    (bvurem $e2 #b0000000000000000000000000000000000000000000000000000000000001000)) 

   (store |symex_dynamic::alloca::dynamic_230_array&0#39| 

    (concat #b000 

     ((_ extract 63 3) $e2)) #b00000000) |symex_dynamic::alloca::dynamic_230_array&0#39|)))

(assert 

 (= |goto_symex::guard?0!0&0#22| 

  (bvnot 

   (ite 

    (= #b00000000 

     (select |symex_dynamic::alloca::dynamic_230_array&0#40| #b0000000000000000000000000000000000000000000000000000000000000000)) #b1 #b0))))

(assert 

 (= |goto_symex::guard?0!0&0#23| 

  (bvnot 

   (ite 

    (= #b00000000 

     (select |symex_dynamic::alloca::dynamic_230_array&0#40| #b0000000000000000000000000000000000000000000000000000000000000001)) #b1 #b0))))

(assert 

 (= |goto_symex::guard?0!0&0#24| 

  (bvnot 

   (ite 

    (= #b00000000 

     (select |symex_dynamic::alloca::dynamic_230_array&0#40| #b0000000000000000000000000000000000000000000000000000000000000010)) #b1 #b0))))

(assert 

 (= |goto_symex::guard?0!0&0#25| 

  (bvnot 

   (ite 

    (= #b00000000 

     (select |symex_dynamic::alloca::dynamic_230_array&0#40| #b0000000000000000000000000000000000000000000000000000000000000011)) #b1 #b0))))

(assert 

 (= |goto_symex::guard?0!0&0#26| 

  (bvnot 

   (ite 

    (= #b00000000 

     (select |symex_dynamic::alloca::dynamic_230_array&0#40| #b0000000000000000000000000000000000000000000000000000000000000100)) #b1 #b0))))

(assert 

 (= |goto_symex::guard?0!0&0#27| 

  (bvnot 

   (ite 

    (= #b00000000 

     (select |symex_dynamic::alloca::dynamic_230_array&0#40| #b0000000000000000000000000000000000000000000000000000000000000101)) #b1 #b0))))

(assert 

 (= |goto_symex::guard?0!0&0#28| 

  (bvnot 

   (ite 

    (= #b00000000 

     (select |symex_dynamic::alloca::dynamic_230_array&0#40| #b0000000000000000000000000000000000000000000000000000000000000110)) #b1 #b0))))

(assert 

 (= |goto_symex::guard?0!0&0#29| 

  (bvnot 

   (ite 

    (= #b00000000 

     (select |symex_dynamic::alloca::dynamic_230_array&0#40| #b0000000000000000000000000000000000000000000000000000000000000111)) #b1 #b0))))

(assert 

 (= |goto_symex::guard?0!0&0#30| 

  (bvnot 

   (ite 

    (= #b00000000 

     (select |symex_dynamic::alloca::dynamic_230_array&0#40| #b0000000000000000000000000000000000000000000000000000000000001000)) #b1 #b0))))

(assert 

 (= |goto_symex::guard?0!0&0#31| 

  (bvnot 

   (ite 

    (= #b00000000 

     (select |symex_dynamic::alloca::dynamic_230_array&0#40| #b0000000000000000000000000000000000000000000000000000000000001001)) #b1 #b0))))

(assert 

 (= |goto_symex::guard?0!0&0#32| 

  (bvnot 

   (ite 

    (= #b00000000 

     (select |symex_dynamic::alloca::dynamic_230_array&0#40| #b0000000000000000000000000000000000000000000000000000000000001010)) #b1 #b0))))

(assert 

 (= |goto_symex::guard?0!0&0#33| 

  (bvnot 

   (ite 

    (= #b00000000 

     (select |symex_dynamic::alloca::dynamic_230_array&0#40| #b0000000000000000000000000000000000000000000000000000000000001011)) #b1 #b0))))

(assert 

 (= |goto_symex::guard?0!0&0#34| 

  (bvnot 

   (ite 

    (= #b00000000 

     (select |symex_dynamic::alloca::dynamic_230_array&0#40| #b0000000000000000000000000000000000000000000000000000000000001100)) #b1 #b0))))

(assert 

 (= |goto_symex::guard?0!0&0#35| 

  (bvnot 

   (ite 

    (= #b00000000 

     (select |symex_dynamic::alloca::dynamic_230_array&0#40| #b0000000000000000000000000000000000000000000000000000000000001101)) #b1 #b0))))

(assert 

 (= |goto_symex::guard?0!0&0#36| 

  (bvnot 

   (ite 

    (= #b00000000 

     (select |symex_dynamic::alloca::dynamic_230_array&0#40| #b0000000000000000000000000000000000000000000000000000000000001110)) #b1 #b0))))

(assert 

 (= |goto_symex::guard?0!0&0#37| 

  (bvnot 

   (ite 

    (= #b00000000 

     (select |symex_dynamic::alloca::dynamic_230_array&0#40| #b0000000000000000000000000000000000000000000000000000000000001111)) #b1 #b0))))

(assert 

 (= |goto_symex::guard?0!0&0#38| 

  (bvnot 

   (ite 

    (= #b00000000 

     (select |symex_dynamic::alloca::dynamic_230_array&0#40| #b0000000000000000000000000000000000000000000000000000000000010000)) #b1 #b0))))

(assert 

 (= |goto_symex::guard?0!0&0#39| 

  (bvnot 

   (ite 

    (= #b00000000 

     (select |symex_dynamic::alloca::dynamic_230_array&0#40| #b0000000000000000000000000000000000000000000000000000000000010001)) #b1 #b0))))

(assert 

 (= |goto_symex::guard?0!0&0#40| 

  (bvnot 

   (ite 

    (= #b00000000 

     (select |symex_dynamic::alloca::dynamic_230_array&0#40| #b0000000000000000000000000000000000000000000000000000000000010010)) #b1 #b0))))

(assert 

 (= |goto_symex::guard?0!0&0#41| 

  (bvnot 

   (ite 

    (= #b00000000 

     (select |symex_dynamic::alloca::dynamic_230_array&0#40| #b0000000000000000000000000000000000000000000000000000000000010011)) #b1 #b0))))

(assert (= 

 (bvnot 

  (bvand 

   (bvnot 

    (bvand 

     (bvand 

      (bvand 

       (bvand 

        (bvand 

         (bvand 

          (bvand 

           (bvand 

            (bvand 

             (bvand 

              (bvand 

               (bvand 

                (bvand 

                 (bvand 

                  (bvand 

                   (bvand 

                    (bvand 

                     (bvand 

                      (bvand 

                       (bvand |goto_symex::guard?0!0&0#2| |goto_symex::guard?0!0&0#3|) |goto_symex::guard?0!0&0#4|) |goto_symex::guard?0!0&0#5|) |goto_symex::guard?0!0&0#6|) |goto_symex::guard?0!0&0#7|) |goto_symex::guard?0!0&0#8|) |goto_symex::guard?0!0&0#9|) |goto_symex::guard?0!0&0#10|) |goto_symex::guard?0!0&0#11|) |goto_symex::guard?0!0&0#12|) |goto_symex::guard?0!0&0#13|) |goto_symex::guard?0!0&0#14|) |goto_symex::guard?0!0&0#15|) |goto_symex::guard?0!0&0#16|) |goto_symex::guard?0!0&0#17|) |goto_symex::guard?0!0&0#18|) |goto_symex::guard?0!0&0#19|) |goto_symex::guard?0!0&0#20|) |goto_symex::guard?0!0&0#21|) |execution_statet::guard_exec?0!0|)) 

   (bvnot 

    (bvand |execution_statet::guard_exec?0!0| 

     (bvand |goto_symex::guard?0!0&0#41| 

      (bvand |goto_symex::guard?0!0&0#40| 

       (bvand |goto_symex::guard?0!0&0#39| 

        (bvand |goto_symex::guard?0!0&0#38| 

         (bvand |goto_symex::guard?0!0&0#37| 

          (bvand |goto_symex::guard?0!0&0#36| 

           (bvand |goto_symex::guard?0!0&0#35| 

            (bvand |goto_symex::guard?0!0&0#34| 

             (bvand |goto_symex::guard?0!0&0#33| 

              (bvand |goto_symex::guard?0!0&0#32| 

               (bvand |goto_symex::guard?0!0&0#31| 

                (bvand |goto_symex::guard?0!0&0#30| 

                 (bvand |goto_symex::guard?0!0&0#29| 

                  (bvand |goto_symex::guard?0!0&0#28| 

                   (bvand |goto_symex::guard?0!0&0#27| 

                    (bvand |goto_symex::guard?0!0&0#26| 

                     (bvand |goto_symex::guard?0!0&0#25| 

                      (bvand |goto_symex::guard?0!0&0#24| 

                       (bvand |goto_symex::guard?0!0&0#23| 

                        (bvand 

                         (bvnot 

                          (bvand |goto_symex::guard?0!0&0#2| 

                           (bvand |goto_symex::guard?0!0&0#3| 

                            (bvand |goto_symex::guard?0!0&0#4| 

                             (bvand |goto_symex::guard?0!0&0#5| 

                              (bvand |goto_symex::guard?0!0&0#6| 

                               (bvand |goto_symex::guard?0!0&0#7| 

                                (bvand |goto_symex::guard?0!0&0#8| 

                                 (bvand |goto_symex::guard?0!0&0#9| 

                                  (bvand |goto_symex::guard?0!0&0#10| 

                                   (bvand |goto_symex::guard?0!0&0#11| 

                                    (bvand |goto_symex::guard?0!0&0#12| 

                                     (bvand |goto_symex::guard?0!0&0#13| 

                                      (bvand |goto_symex::guard?0!0&0#14| 

                                       (bvand |goto_symex::guard?0!0&0#15| 

                                        (bvand |goto_symex::guard?0!0&0#16| 

                                         (bvand |goto_symex::guard?0!0&0#17| 

                                          (bvand |goto_symex::guard?0!0&0#18| 

                                           (bvand |goto_symex::guard?0!0&0#19| 

                                            (bvand |goto_symex::guard?0!0&0#20| |goto_symex::guard?0!0&0#21|)))))))))))))))))))) |goto_symex::guard?0!0&0#22|)))))))))))))))))))))))) #b1))

(check-sat)

(exit)
